10	5
0	5	5	2	4	3	1
1	2	6	7
2	3	8	10	7
3	2	7	6
4	2	9	7
5	2	10	8
6	2	8	9
7	1	11
8	1	11
9	1	11
10	1	11
11	0
0	0	0	0	0	0	0
1	1	0	1	4	4	0
2	7	4	3	4	2	2
3	9	5	1	0	1	4
4	5	0	0	0	4	3
5	10	0	1	0	0	1
6	6	2	4	5	4	4
7	6	3	4	0	0	5
8	4	5	5	2	3	1
9	3	3	3	4	1	2
10	8	1	0	3	3	1
11	0	0	0	0	0	0
6	5	5	6	6
